# written by ASE

%BLOCK LATTICE_CART
20.000000  0.000000  0.000000
 0.000000 20.000000  0.000000
 0.000000  0.000000 20.000000
%ENDBLOCK LATTICE_CART

%BLOCK POSITIONS_ABS
O 15.282057 14.095850 16.589982
H 16.191795 13.866583 16.349295
H 15.352234 14.995918 16.940796
O  2.430589 17.650196 18.761228
H  1.462141 17.654019 18.746642
H  2.675213 17.174303 17.953884
O 11.929263  5.454339  5.304674
H 12.835473  5.627121  5.599711
H 11.549419  4.918081  6.016196
O 10.869875  4.214764  0.871650
H 10.088925  4.109429  1.434803
H 11.608555  4.239471  1.497637
O 12.158216  2.323424 19.244861
H 12.625957  2.890729 18.614385
H 11.706322  2.947821 19.831408
O  7.171571  3.699798  7.681025
H  6.280290  3.593931  8.045071
H  7.737051  3.774595  8.463813
O  5.882290 13.565778 14.378311
H  6.661822 13.273417 14.873257
H  5.512400 12.746233 14.018249
O 18.654881  9.817745 14.056708
H 18.359975 10.711314 13.827179
H 18.464800  9.297015 13.262461
O 16.246233  7.101019 18.791074
H 15.541666  7.764772 18.824750
H 15.796046  6.296267 18.494724
O  5.249859 18.974852 11.584112
H  5.107066 18.645063 10.684686
H  4.431318 19.448813 11.792606
O 13.578372  4.939286  7.610354
H 13.782660  5.690173  8.187028
H 14.329464  4.339825  7.731287
O  5.274803 18.878554 13.925929
H  5.740330 18.530239 14.700577
H  4.755867 19.617209 14.276945
O 11.243540 16.669746 12.983617
H 10.518792 17.114850 12.520215
H 11.377728 17.206224 13.778792
O  2.347869  5.708111 13.585275
H  1.387890  5.681858 13.459299
H  2.455353  5.942457 14.518896
O 16.182507 16.517510 15.571812
H 16.705429 15.752253 15.290649
H 16.144442 17.077961 14.782784
O  0.255196 10.611582  5.110150
H  0.232683 10.692870  4.145264
H  0.008479 11.493544  5.425417
O 17.013449  6.827073  2.828528
H 16.730007  7.310859  3.618294
H 17.610619  7.442627  2.378418
O  4.794352  4.052615  3.527958
H  5.568812  3.836218  2.988048
H  4.042635  3.817397  2.964299
O 19.379590 18.856758 15.976527
H 18.792440 19.607405 16.149448
H 20.003270 19.194236 15.316791
O 11.344584  4.808877 10.578722
H 10.440409  4.622943 10.285441
H 11.815990  3.976498 10.426936
O 15.280922 17.528667 17.532956
H 16.072659 17.655788 18.076196
H 14.700070 16.987965 18.088266
O  6.846301 14.485697 12.342028
H  6.863834 15.265791 11.768213
H  6.729766 13.745743 11.728019
O 13.722021  0.192476  6.014544
H 14.667127  0.000000  6.103125
H 13.360418 -0.000067  6.892205
O 14.035736 19.179966  7.533753
H 13.200209 19.041879  8.003802
H 14.380860 18.284706  7.401400
O  2.819806 10.109456  0.005534
H  3.784390 10.112395  0.093219
H  2.581411  9.172985  0.071173
O  6.611430  3.734015 14.655102
H  7.338147  4.318157 14.392842
H  6.589337  3.806504 15.620698
O 19.008931  9.892527 16.257794
H 19.858143  9.551226 16.574765
H 18.729985 10.507920 16.951767
O  4.115451  6.863942  3.424333
H  4.968872  6.593654  3.054554
H  3.655508  7.273828  2.676962
O  2.341115  8.006047 11.515552
H  2.079497  7.221506 12.019705
H  2.898805  8.504682 12.130746
O  4.188244 19.126524 18.039620
H  4.966224 18.583065 17.845928
H  4.421902 20.001245 17.695549
O 18.420520 13.456660  4.210419
H 19.130024 13.209874  3.599011
H 18.651485 14.355791  4.486711
O 16.707139  5.554655 16.252604
H 15.942376  5.116642 15.850857
H 17.137453  4.853098 16.763257
O  1.896483 18.609747  5.378081
H  1.982671 17.825459  5.939848
H  1.569750 18.260058  4.536012
O  4.220237  7.632066 18.212179
H  5.012459  7.671223 18.768029
H  3.489355  7.607903 18.847275
O  0.534489  3.560522  2.002682
H  0.408273  2.751320  1.485594
H  0.940798  4.177734  1.376519
O 10.391558 18.526367 16.378860
H 10.594347 17.856193 17.048085
H 10.543560 19.366933 16.835436
O 19.410032  7.614704 17.564365
H 20.012382  7.788972 18.302554
H 18.564965  7.415284 17.993563
O  1.204094  4.608838  8.292855
H  0.757979  3.907864  8.790584
H  1.154199  5.379460  8.877466
O  9.701604 17.600967  7.723133
H  9.808950 16.830388  7.146242
H  9.432331 18.309444  7.120083
O 12.566122 13.541608 11.886091
H 12.097747 12.846775 12.371837
H 12.849070 14.159779 12.575963
O  1.966512  2.209411 10.870548
H  2.165551  3.157206 10.856895
H  1.880811  1.974479  9.934823
O  5.198682  2.879619  9.979660
H  4.453365  3.082164 10.564123
H  5.953434  2.799977 10.581428
O 14.364042 16.310961 13.074013
H 14.057395 17.086138 13.567152
H 14.299846 15.586135 13.713251
O 14.262759 17.943837 10.268011
H 14.675156 18.558040  9.642870
H 13.770647 17.329887  9.703201
O 12.426615 14.881789 18.892950
H 11.977451 14.141128 19.326299
H 11.968234 14.969622 18.044251
O 11.440708  0.984430  5.542886
H 12.096783  1.170566  4.855110
H 10.592115  1.046042  5.080056
O 19.573636  6.758017  8.203478
H 20.000651  7.088007  7.399188
H 18.769700  6.324634  7.881014
O  1.652934 12.807218  5.920321
H  1.180283 13.605280  5.641364
H  2.293996 12.654407  5.210528
O  1.968272 15.121214  3.556630
H  1.760645 14.619801  2.754386
H  2.928414 15.031462  3.647127
O  7.756446 11.271375  7.212308
H  7.240594 10.843381  7.911476
H  7.980534 12.137564  7.583279
O  5.101079  0.636230  9.668503
H  5.589863  0.148024 10.347373
H  4.177790  0.384646  9.818038
O  7.055954 12.848922  2.934690
H  7.139166 12.393563  3.785479
H  6.498658 13.615888  3.132940
O  8.669093 18.655486 14.423519
H  8.363897 19.364248 13.838173
H  8.937492 17.949798 13.816819
O  8.046139  0.973381  8.864974
H  8.349545  0.392465  9.578136
H  7.740990  1.769296  9.324889
O 15.289162 11.658301 16.972363
H 14.706602 11.559174 16.204954
H 14.885923 11.092609 17.647277
O  8.453842  5.959903 10.837941
H  8.108490  5.870234 11.738391
H  8.838549  6.848645 10.821952
O 10.178137 15.271047 16.120644
H  9.415932 14.767984 16.443272
H 10.710115 14.613491 15.648692
O 14.169242 10.979966 11.602115
H 13.917692 11.393010 10.762928
H 14.702789 11.655975 12.045350
O 19.073914 13.190947  8.016986
H 18.175826 13.519007  7.862287
H 19.642187 13.868661  7.622161
O 19.302376 12.198504  5.926259
H 19.999836 12.794075  5.614869
H 19.339456 11.451963  5.310287
O  6.082673 18.063819  4.165856
H  6.238873 18.227258  3.224045
H  5.135313 17.868548  4.215820
O  0.730553  2.473925 15.063699
H  1.593489  2.353722 15.486796
H  0.107170  2.066489 15.682979
O  1.924045 18.931645 11.199988
H  2.053100 19.622677 10.533701
H  2.251190 19.331884 12.019075
O 15.068811 14.213485  2.787019
H 14.873712 14.759922  3.562558
H 15.213838 13.328980  3.154082
O  4.292678 12.985152  9.352376
H  5.202178 13.175051  9.078759
H  3.971033 12.364525  8.681940
O 14.954321  3.330320 11.210198
H 15.301993  3.005061 10.366723
H 14.732243  4.255859 11.030820
O  9.054482  2.592243  3.831547
H  8.420981  2.652810  3.101392
H  9.917037  2.691118  3.402198
O 12.486519 11.129498 20.011693
H 11.870787 11.389611 19.310742
H 13.279216 10.844775 19.533486
O  5.367136  9.953895 14.238961
H  4.974360  9.245314 13.708153
H  4.650715 10.228455 14.830125
O 14.093127  4.313488 17.643746
H 14.020675  4.524941 16.701325
H 15.035511  4.129409 17.770810
O 11.812923 19.254473 14.403102
H 12.044450 20.083508 13.959014
H 10.846141 19.223857 14.352957
O 11.637511  9.706800 16.806329
H 10.796568  9.915388 17.239254
H 12.216414  9.439497 17.535396
O 13.996758  6.897849 10.950392
H 13.762148  7.837563 10.953994
H 14.867543  6.875364 10.526899
O 12.713816  3.040839  3.252504
H 13.665728  2.869786  3.304685
H 12.541692  3.636695  3.996445
O 11.308265  5.105718 12.777588
H 11.859827  5.872470 12.992041
H 10.843729  4.912416 13.605211
O  1.499137  9.130516  3.195544
H  1.607317  8.528988  3.946928
H  2.143915  9.833500  3.363452
O  6.433772  6.173094  9.524678
H  6.275792  5.427393 10.122248
H  7.088973  5.835204  8.896458
O  3.165482  5.589918  7.908584
H  3.419726  4.827082  8.448546
H  3.299499  6.348070  8.496260
O  8.876672 13.984071 19.023441
H  9.448418 14.735516 19.239207
H  8.903541 13.433028 19.819523
O 19.996910  3.398987 11.297049
H 19.767459  3.532492 10.365573
H 19.367510  2.727812 11.599537
O  6.410162  9.089114 16.955661
H  6.220063  8.372629 16.332260
H  6.853613  9.758980 16.414598
O  9.542188  7.898726 17.060289
H  8.675619  7.827471 16.633558
H 10.160265  7.995332 16.320852
O 16.804719  7.112929  9.513945
H 17.714100  6.858138  9.728945
H 16.499915  6.412892  8.917990
O  0.439651 10.255398 -0.002924
H  0.517725  9.541710  0.647208
H  0.223468 11.034942  0.529706
O 11.638322 16.463774 10.604368
H 10.810730 16.384344 10.107478
H 12.183374 15.736491 10.269560
O 11.005202  9.387259 19.369300
H 11.681647  8.925442 19.886277
H 10.450554  9.815082 20.038219
O  5.641116  7.868043  7.921967
H  6.406503  8.226873  8.394769
H  4.970437  7.757078  8.611892
O  3.743343 16.687353  2.366193
H  4.502271 16.765882  1.769553
H  2.983966 16.608138  1.770215
O 12.067570  1.360071 14.183946
H 11.774597  2.188641 13.776816
H 11.692753  0.673170 13.613159
O  5.098923  9.004581  1.423617
H  4.984565  9.341865  2.324327
H  5.463729  8.116371  1.550570
O  8.837692 12.406118 16.441697
H  9.252726 12.710458 17.262210
H  7.948415 12.136557 16.714903
O  0.331072  8.891676 11.391788
H  0.790064  9.515716 11.973181
H  0.004803  9.444034 10.666138
O 18.155283  6.652355 20.017054
H 17.645237  5.837258 19.900485
H 19.066653  6.388304 19.822631
O  9.239940  7.318026  4.804121
H  8.432335  7.433865  5.326112
H  9.663597  8.188587  4.831617
O 11.838966  8.988005 10.804688
H 11.283499  8.605384 11.499796
H 12.434282  9.584408 11.282204
O  4.802406  0.082029  1.464877
H  5.361232  0.793728  1.119454
H  4.990411  0.076667  2.415005
O 12.109274 17.013697  7.888136
H 11.986680 17.343637  6.985790
H 12.657778 16.223308  7.776122
O 10.038838  1.125854 17.610550
H 10.438859  0.507370 18.239501
H  9.631475  1.801134 18.172840
O  5.494532  5.841741  6.112718
H  6.334944  6.322693  6.135327
H  5.705330  4.982943  6.507873
O  4.464834 12.570609  3.609139
H  4.170670 13.254373  4.228859
H  4.797869 11.863516  4.181175
O  3.162421 14.062925 18.753178
H  2.340655 13.605025 18.522643
H  3.243217 14.753202 18.078562
O  3.322327 14.233799 15.173926
H  3.085875 13.294644 15.159889
H  3.579858 14.424275 14.259860
O  8.279311 17.739226  5.072470
H  8.486347 16.830554  5.336231
H  9.083429 18.042545  4.625804
O  9.362208 16.084884  0.689981
H  9.349305 16.744929 -0.018744
H  9.696892 15.284713  0.258899
O 13.469607  3.938946 12.873168
H 13.647526  2.989654 12.946012
H 14.024596  4.334832 13.561195
O 17.617492 15.489232 11.144354
H 17.683144 14.957815 10.337258
H 17.491731 16.393207 10.820112
O  4.268147 18.966100  6.423367
H  4.832017 18.182799  6.504661
H  4.865112 19.650662  6.087026
O 19.886174  8.553023  4.954454
H 19.754973  9.322753  4.381376
H 19.999997  7.816767  4.335512
O 16.613721 20.004458 14.706898
H 16.665379 19.644899 15.604766
H 17.530296 19.986808 14.394331
O 11.190488  9.618130  4.089202
H 11.291451  9.111855  3.269684
H 11.833908  9.218033  4.692569
O 10.026762 16.110813  3.738634
H  9.712169 16.141435  2.823095
H 10.163459 15.167016  3.907982
O  4.364899  9.617520 10.066166
H  3.904863  8.780394 10.226497
H  5.299798  9.367394 10.027192
O 15.015209  0.203242 15.351385
H 14.343155  0.257942 14.656065
H 15.832138  0.000380 14.872227
O 13.247963 17.598963  1.289596
H 13.599678 18.237246  1.927569
H 12.901013 16.882762  1.841683
O 16.897330 16.009087 19.501097
H 17.531322 16.740673 19.531972
H 17.283705 15.390954 18.863332
O 15.430966  1.233651  3.233793
H 14.663046  0.926313  2.729849
H 15.217363  1.003437  4.150032
O 15.727202  2.482448 19.314854
H 15.878613  1.813168 19.998416
H 14.765795  2.599918 19.310815
O 11.121276  0.793221  2.896020
H 11.168390  1.396084  2.139413
H 10.703831 -0.002980  2.535571
O 16.532403 11.102507  3.913476
H 16.644284 10.253473  3.460992
H 17.381754 11.550047  3.785292
O 18.220847  6.040751  4.873664
H 18.408351  6.499884  5.705624
H 18.840503  5.296344  4.872035
O 14.052930  6.903634 13.155644
H 13.724039  7.811904 13.226317
H 13.786879  6.492407 13.991244
O  2.561189  5.534819  0.761480
H  3.069747  4.895198  1.281453
H  2.185333  6.130946  1.425921
O  3.510690 19.589075  0.934435
H  3.728459 18.780492  1.421147
H  2.807548 19.997243  1.460846
O 18.899667 16.481502  8.724732
H 18.492602 17.298016  8.399584
H 19.304427 16.091278  7.936054
O  7.480221 11.037628 14.699796
H  7.611031 10.182997 14.263204
H  8.016394 11.652160 14.177313
O 12.889249 17.487586 16.643955
H 12.560597 16.952244 17.381190
H 13.485561 16.890584 16.168435
O 14.885902 18.994475 12.552773
H 14.001724 19.229846 12.235048
H 15.473300 19.607370 12.086466
O 11.814139  1.506325  9.067935
H 11.165198  2.185675  9.303472
H 11.321810  0.900884  8.494200
O  5.586027 12.985779  6.688659
H  5.692789 13.929617  6.878107
H  6.288134 12.794189  6.049552
O 18.387422 16.721402 16.881536
H 17.839179 17.512380 16.772438
H 18.884738 16.891393 17.695108
O  2.824587 19.199660 16.085119
H  2.816644 19.812031 15.334747
H  3.343524 18.446182 15.767169
O  1.264241 18.072329 14.061906
H  2.040303 17.702101 13.616062
H  0.678994 18.333216 13.335585
O 13.159591  3.146648 -0.000457
H 12.797231  2.435548  0.548314
H 14.106792  3.139148  0.201713
O 12.802578  1.447231 16.449029
H 12.173908  0.739436 16.653771
H 13.562958  1.257098 17.018053
O  1.771179  2.663276  7.132890
H  2.514910  2.205374  6.714192
H  1.088314  1.980572  7.208584
O  7.210553 11.164476  0.641577
H  6.478008 10.726559  1.099535
H  7.863818 11.319893  1.339580
O  8.848764  5.221149 15.741365
H  8.245741  5.957915 15.563441
H  9.727757  5.627394 15.720035
O 14.770139 13.489843 19.646711
H 14.435998 13.920008 18.845820
H 15.718118 13.384775 19.478141
O  4.997972  5.598493 14.040770
H  5.002194  6.539294 13.810568
H  5.523262  5.183612 13.340725
O  8.438105 17.030803 16.792420
H  7.598077 17.052312 16.310747
H  8.297357 16.362499 17.479208
O  6.428784  8.128755 12.431785
H  6.818750  7.450984 13.003335
H  6.364500  7.697350 11.566987
O 16.401332  9.297166 15.667726
H 15.879113  9.778370 15.009054
H 15.896019  9.399493 16.487669
O  6.864261 19.416719 19.715087
H  7.669883 19.895709 19.959343
H  6.429650 20.000014 19.075557
O 11.509833  3.196820 16.131086
H 11.306511  3.998130 15.626427
H 10.906595  2.531774 15.767855
O  8.355631  9.379441 11.533081
H  8.891668  9.671603 10.781134
H  8.989554  8.932431 12.113117
O  1.888409 11.725932 17.346186
H  1.993331 10.947599 16.779347
H  1.778028 12.457703 16.721330
O  3.644856 15.346748  6.440299
H  3.561828 16.304860  6.555391
H  2.999764 14.979253  7.062329
O 18.468322 10.067509  6.778413
H 18.094456  9.356316  6.237538
H 17.693694 10.490167  7.177700
O  7.739832 19.810546  1.597779
H  7.002498 19.996387  2.197712
H  8.476359 19.599133  2.190189
O  3.310427  2.953454 13.777190
H  2.688572  3.153583 13.062093
H  4.181250  3.084919 13.374075
O 18.566588  1.676488  6.441812
H 17.696001  1.429786  6.787260
H 19.170944  1.491350  7.175703
O 10.450994 12.250060  4.203160
H  9.709552 11.702611  4.500956
H 11.045578 12.275026  4.967336
O  8.063981  4.077418  5.133704
H  8.588099  4.286669  5.920872
H  7.234632  3.726973  5.490755
O  9.327955 13.717285  1.711311
H  8.426873 13.691230  1.357064
H  9.223991 13.448982  2.636148
O  3.809084 14.382618  1.583545
H  3.108838 14.364209  0.914640
H  4.627735 14.358672  1.066481
O 10.982111 10.922075 10.065614
H 10.894227 11.207759 10.986906
H 10.491609 11.590702  9.565150
O 18.438936  4.546521 12.462528
H 18.637283  5.317668 13.013989
H 17.932721  4.911959 11.722042
O  7.672889  1.174462 17.363565
H  7.993861  0.377930 17.811484
H  7.403176  1.758067 18.087981
O  7.115913 19.425578  6.759710
H  6.955789 19.780076  7.646732
H  6.950199 18.475912  6.853474
O 15.500040  4.647707  4.135654
H 16.414387  4.967220  4.135425
H 15.281942  4.560867  3.195967
O 16.568639  4.841980  1.407942
H 16.266286  5.626598  0.927239
H 17.525707  4.830646  1.259584
O 11.951834  2.890194  6.802100
H 12.621453  2.953028  7.499079
H 11.128461  3.143780  7.244672
O 15.103210 15.962865  8.658096
H 15.283370 15.339494  7.939020
H 15.964243 16.368319  8.837945
O  2.661112  4.184375 16.116920
H  2.259762  4.878045 16.660849
H  3.583924  4.161182 16.410174
O  3.001862 18.390537  8.181136
H  2.791962 19.319510  8.357401
H  2.609853 17.915791  8.928841
O 13.373994  8.241423  1.890333
H 13.531010  8.867817  2.612202
H 12.781945  8.718742  1.290532
O 11.774918 15.297028  5.469629
H 11.414360 14.998325  6.317505
H 12.044297 14.478161  5.028030
O 16.005469 13.933065 11.565350
H 16.260833 13.244849 12.197225
H 15.053625 13.799729 11.445632
O  9.125866 12.246955 12.374290
H  9.843759 12.858277 12.595723
H  8.701703 12.652856 11.603934
O  3.921975  5.355973 10.625591
H  4.418673  5.260705 11.451625
H  3.491387  6.219510 10.709352
O  3.956497  0.804048 15.993934
H  3.185466  1.104619 16.497210
H  4.694054  0.902917 16.613897
O  7.297721 15.803589  1.349047
H  7.583512 16.576947  1.857338
H  6.586393 15.421446  1.883927
O 13.445883 11.327021  2.013546
H 12.516518 11.569835  1.889286
H 13.860862 11.547227  1.166540
O 17.183667 18.774351  0.629291
H 17.790638 19.428225  1.006322
H 17.768339 18.083845  0.283632
O 18.939318  5.071392 15.441565
H 19.080630  5.609130 16.234652
H 19.522076  4.308318 15.568958
O 16.291259  9.432823 11.823774
H 15.699363  9.337605 12.584504
H 15.691271  9.486289 11.065306
O 11.357308 17.640498 -0.004401
H 11.599300 16.708933  0.103974
H 11.094772 17.919415  0.885204
O  4.353644  9.551008  7.381924
H  4.520028  9.173694  6.505529
H  5.142667 10.083272  7.561524
O  9.597044  6.583853  7.755101
H  9.826024  5.840283  7.178221
H  9.409986  6.168372  8.609795
O 13.204214 13.719560 15.910590
H 13.173848 13.618338 14.947807
H 12.919223 14.633234 16.059241
O 18.023389  1.865838 17.024391
H 18.562324  2.607882 17.335899
H 18.612784  1.100826 17.098476
O 18.412302 18.088535 13.215535
H 17.546588 18.141984 12.784489
H 18.200877 17.923144 14.146161
O  8.180029 14.944367  6.777444
H  8.733017 14.356687  7.313126
H  8.145060 14.509437  5.912730
O 16.799525  7.068503 13.799265
H 17.666724  7.335221 14.138302
H 16.235203  7.052021 14.586277
O  5.329775 16.396421  8.539740
H  5.513596 17.158254  9.108897
H  5.218289 15.661509  9.160701
O  4.817841  5.254161 19.309517
H  5.781088  5.187254 19.233384
H  4.560819  4.435223 19.758293
O 10.723708  7.211473  1.362915
H 10.683904  6.446558  1.955738
H  9.959912  7.748129  1.621245
O 18.503975  0.865290  9.335244
H 17.619569  1.249626  9.244525
H 19.091904  1.634468  9.363951
O 17.502247  0.825693  3.842303
H 17.903036  1.606003  4.252915
H 17.222520  0.282899  4.594130
O 10.602879 11.029978 14.663240
H 11.366955 11.211715 15.230052
H  9.890633 10.827947 15.287746
O  1.923946  5.679228  4.715826
H  2.322141  5.427866  3.869436
H  2.468941  6.419699  5.020459
O 14.332517 19.456537 15.225883
H 14.254423 19.984329 14.417518
H 13.827333 18.653442 15.031087
O 11.853423  7.057280 17.950303
H 12.694418  7.257122 18.387234
H 11.187315  7.240676 18.629114
O 16.478619 11.986541  9.862977
H 16.483071 11.782177  8.916228
H 16.915303 11.223517 10.269450
O 13.881472  7.605742 15.998680
H 14.177485  8.353874 15.459427
H 14.681987  7.320665 16.463465
O  7.056350 11.517704 10.668639
H  7.102594 10.737681 10.096325
H  6.991256 12.259361 10.049102
O 15.850525  0.673586 12.779546
H 15.021034  1.083775 12.493526
H 16.270948  0.394116 11.952951
O 10.416879  0.697111 10.743690
H 10.363938  1.496574 11.287909
H 10.762106  0.024198 11.348772
O  8.381905  4.695128 17.871840
H  7.537254  4.312450 18.151554
H  9.028977  4.000570 18.064208
O 17.432479  4.286091  8.592903
H 18.364907  4.387512  8.834585
H 17.188580  3.422453  8.957265
%ENDBLOCK POSITIONS_ABS

