# written by ASE

%BLOCK LATTICE_CART
11.466000  0.000000  0.000000
 0.000000 11.466000  0.000000
 0.000000  0.000000 11.466000
%ENDBLOCK LATTICE_CART

KPOINTS_MP_GRID 2 2 2

%BLOCK POSITIONS_ABS
Fe  0.000000  0.000000  0.000000 SPIN=4 
Fe  1.433250  1.433250  1.433250 SPIN=4
Fe  0.000000  0.000000  2.866500 SPIN=4
Fe  1.433250  1.433250  4.299750 SPIN=4
Fe  0.000000  0.000000  5.733000 SPIN=4
Fe  1.433250  1.433250  7.166250 SPIN=4
Fe  0.000000  0.000000  8.599500 SPIN=4
Fe  1.433250  1.433250 10.032750 SPIN=4
Fe  0.000000  2.866500  0.000000 SPIN=4
Fe  1.433250  4.299750  1.433250 SPIN=4
Fe  0.000000  2.866500  2.866500 SPIN=4
Fe  1.433250  4.299750  4.299750 SPIN=4
Fe  0.000000  2.866500  5.733000 SPIN=4
Fe  1.433250  4.299750  7.166250 SPIN=4
Fe  0.000000  2.866500  8.599500 SPIN=4
Fe  1.433250  4.299750 10.032750 SPIN=4
Fe  0.000000  5.733000  0.000000 SPIN=4
Fe  1.433250  7.166250  1.433250 SPIN=4
Fe  0.000000  5.733000  2.866500 SPIN=4
Fe  1.433250  7.166250  4.299750 SPIN=4
Fe  0.000000  5.733000  5.733000 SPIN=4
Fe  1.433250  7.166250  7.166250 SPIN=4
Fe  0.000000  5.733000  8.599500 SPIN=4
Fe  1.433250  7.166250 10.032750 SPIN=4
Fe  0.000000  8.599500  0.000000 SPIN=4
Fe  1.433250 10.032750  1.433250 SPIN=4
Fe  0.000000  8.599500  2.866500 SPIN=4
Fe  1.433250 10.032750  4.299750 SPIN=4
Fe  0.000000  8.599500  5.733000 SPIN=4
Fe  1.433250 10.032750  7.166250 SPIN=4
Fe  0.000000  8.599500  8.599500 SPIN=4
Fe  1.433250 10.032750 10.032750 SPIN=4
Fe  2.866500  0.000000  0.000000 SPIN=4
Fe  4.299750  1.433250  1.433250 SPIN=4
Fe  2.866500  0.000000  2.866500 SPIN=4
Fe  4.299750  1.433250  4.299750 SPIN=4
Fe  2.866500  0.000000  5.733000 SPIN=4
Fe  4.299750  1.433250  7.166250 SPIN=4
Fe  2.866500  0.000000  8.599500 SPIN=4
Fe  4.299750  1.433250 10.032750 SPIN=4
Fe  2.866500  2.866500  0.000000 SPIN=4
Fe  4.299750  4.299750  1.433250 SPIN=4
Fe  2.866500  2.866500  2.866500 SPIN=4
Fe  4.299750  4.299750  4.299750 SPIN=4
Fe  2.866500  2.866500  5.733000 SPIN=4
Fe  4.299750  4.299750  7.166250 SPIN=4
Fe  2.866500  2.866500  8.599500 SPIN=4
Fe  4.299750  4.299750 10.032750 SPIN=4
Fe  2.866500  5.733000  0.000000 SPIN=4
Fe  4.299750  7.166250  1.433250 SPIN=4
Fe  2.866500  5.733000  2.866500 SPIN=4
Fe  4.299750  7.166250  4.299750 SPIN=4
Fe  2.866500  5.733000  5.733000 SPIN=4
Fe  4.299750  7.166250  7.166250 SPIN=4
Fe  2.866500  5.733000  8.599500 SPIN=4
Fe  4.299750  7.166250 10.032750 SPIN=4
Fe  2.866500  8.599500  0.000000 SPIN=4
Fe  4.299750 10.032750  1.433250 SPIN=4
Fe  2.866500  8.599500  2.866500 SPIN=4
Fe  4.299750 10.032750  4.299750 SPIN=4
Fe  2.866500  8.599500  5.733000 SPIN=4
Fe  4.299750 10.032750  7.166250 SPIN=4
Fe  2.866500  8.599500  8.599500 SPIN=4
Fe  4.299750 10.032750 10.032750 SPIN=4
Fe  5.733000  0.000000  0.000000 SPIN=4
Fe  7.166250  1.433250  1.433250 SPIN=4
Fe  5.733000  0.000000  2.866500 SPIN=4
Fe  7.166250  1.433250  4.299750 SPIN=4
Fe  5.733000  0.000000  5.733000 SPIN=4
Fe  7.166250  1.433250  7.166250 SPIN=4
Fe  5.733000  0.000000  8.599500 SPIN=4
Fe  7.166250  1.433250 10.032750 SPIN=4
Fe  5.733000  2.866500  0.000000 SPIN=4
Fe  7.166250  4.299750  1.433250 SPIN=4
Fe  5.733000  2.866500  2.866500 SPIN=4
Fe  7.166250  4.299750  4.299750 SPIN=4
Fe  5.733000  2.866500  5.733000 SPIN=4
Fe  7.166250  4.299750  7.166250 SPIN=4
Fe  5.733000  2.866500  8.599500 SPIN=4
Fe  7.166250  4.299750 10.032750 SPIN=4
Fe  5.733000  5.733000  0.000000 SPIN=4
Fe  7.166250  7.166250  1.433250 SPIN=4
Fe  5.733000  5.733000  2.866500 SPIN=4
Fe  7.166250  7.166250  4.299750 SPIN=4
Fe  5.733000  5.733000  5.733000 SPIN=4
Fe  7.166250  7.166250  7.166250 SPIN=4
Fe  5.733000  5.733000  8.599500 SPIN=4
Fe  7.166250  7.166250 10.032750 SPIN=4
Fe  5.733000  8.599500  0.000000 SPIN=4
Fe  7.166250 10.032750  1.433250 SPIN=4
Fe  5.733000  8.599500  2.866500 SPIN=4
Fe  7.166250 10.032750  4.299750 SPIN=4
Fe  5.733000  8.599500  5.733000 SPIN=4
Fe  7.166250 10.032750  7.166250 SPIN=4
Fe  5.733000  8.599500  8.599500 SPIN=4
Fe  7.166250 10.032750 10.032750 SPIN=4
Fe  8.599500  0.000000  0.000000 SPIN=4
Fe 10.032750  1.433250  1.433250 SPIN=4
Fe  8.599500  0.000000  2.866500 SPIN=4
Fe 10.032750  1.433250  4.299750 SPIN=4
Fe  8.599500  0.000000  5.733000 SPIN=4
Fe 10.032750  1.433250  7.166250 SPIN=4
Fe  8.599500  0.000000  8.599500 SPIN=4
Fe 10.032750  1.433250 10.032750 SPIN=4
Fe  8.599500  2.866500  0.000000 SPIN=4
Fe 10.032750  4.299750  1.433250 SPIN=4
Fe  8.599500  2.866500  2.866500 SPIN=4
Fe 10.032750  4.299750  4.299750 SPIN=4
Fe  8.599500  2.866500  5.733000 SPIN=4
Fe 10.032750  4.299750  7.166250 SPIN=4
Fe  8.599500  2.866500  8.599500 SPIN=4
Fe 10.032750  4.299750 10.032750 SPIN=4
Fe  8.599500  5.733000  0.000000 SPIN=4
Fe 10.032750  7.166250  1.433250 SPIN=4
Fe  8.599500  5.733000  2.866500 SPIN=4
Fe 10.032750  7.166250  4.299750 SPIN=4
Fe  8.599500  5.733000  5.733000 SPIN=4
Fe 10.032750  7.166250  7.166250 SPIN=4
Fe  8.599500  5.733000  8.599500 SPIN=4
Fe 10.032750  7.166250 10.032750 SPIN=4
Fe  8.599500  8.599500  0.000000 SPIN=4
Fe 10.032750 10.032750  1.433250 SPIN=4
Fe  8.599500  8.599500  2.866500 SPIN=4
Fe 10.032750 10.032750  4.299750 SPIN=4
Fe  8.599500  8.599500  5.733000 SPIN=4
Fe 10.032750 10.032750  7.166250 SPIN=4
Fe  8.599500  8.599500  8.599500 SPIN=4
Fe 10.032750 10.032750 10.032750 SPIN=4
%ENDBLOCK POSITIONS_ABS

